Maximize

x_0_0 + x_0_1 + x_0_2 + x_1_0 + x_1_1 + x_1_2 + x_2_0 + x_2_1 + x_2_2 + x_3_0 + x_3_1 + x_3_2 + x_4_0 + x_4_1 + x_4_2 + x_5_0 + x_5_1 + x_5_2


Subject To

a0: 20 x_0_0 + 15 x_1_0 + 25 x_2_0 + 12 x_3_0 + 30 x_4_0 + 18 x_5_0 <= 50
a1: 20 x_0_1 + 15 x_1_1 + 25 x_2_1 + 12 x_3_1 + 30 x_4_1 + 18 x_5_1 <= 70
a2: 20 x_0_2 + 15 x_1_2 + 25 x_2_2 + 12 x_3_2 + 30 x_4_2 + 18 x_5_2 <= 100
b0: x_0_0 + x_0_1 + x_0_2 <= 1
b1: x_1_0 + x_1_1 + x_1_2 <= 1
b2: x_2_0 + x_2_1 + x_2_2 <= 1
b3: x_3_0 + x_3_1 + x_3_2 <= 1
b4: x_4_0 + x_4_1 + x_4_2 <= 1
b5: x_5_0 + x_5_1 + x_5_2 <= 1
c0: x_0_2 + x_2_2 <= 1
c1: x_0_2 + x_4_2 <= 1
c2: x_1_2 + x_0_2 <= 1
c3: x_1_2 + x_3_2 <= 1
c4: x_2_2 + x_0_2 <= 1
c5: x_2_2 + x_5_2 <= 1
c6: x_3_2 + x_1_2 <= 1
c7: x_3_2 + x_4_2 <= 1
c8: x_4_2 + x_0_2 <= 1
c9: x_4_2 + x_3_2 <= 1
c10: x_4_2 + x_5_2 <= 1
c11: x_5_2 + x_2_2 <= 1
c12: x_5_2 + x_4_2 <= 1




 


End
